(set-logic QF_FPABV)
(declare-fun b80 () (_ FP 8 24))
(declare-fun b23 () (_ FP 8 24))
(declare-fun b56 () (_ FP 8 24))
(declare-fun b20 () (_ FP 8 24))
(declare-fun b92 () (_ FP 8 24))
(declare-fun b98 () (_ FP 8 24))
(declare-fun b65 () (_ FP 8 24))
(declare-fun b17 () (_ FP 8 24))
(declare-fun b14 () (_ FP 8 24))
(declare-fun b29 () (_ FP 8 24))
(declare-fun b50 () (_ FP 8 24))
(declare-fun b68 () (_ FP 8 24))
(declare-fun b32 () (_ FP 8 24))
(declare-fun b89 () (_ FP 8 24))
(declare-fun b71 () (_ FP 8 24))
(declare-fun b44 () (_ FP 8 24))
(declare-fun b41 () (_ FP 8 24))
(declare-fun b47 () (_ FP 8 24))
(declare-fun b53 () (_ FP 8 24))
(declare-fun b83 () (_ FP 8 24))
(declare-fun b38 () (_ FP 8 24))
(declare-fun b35 () (_ FP 8 24))
(declare-fun b62 () (_ FP 8 24))
(declare-fun b11 () (_ FP 8 24))
(declare-fun b95 () (_ FP 8 24))
(declare-fun b26 () (_ FP 8 24))
(declare-fun b74 () (_ FP 8 24))
(declare-fun b59 () (_ FP 8 24))
(declare-fun b101 () (_ FP 8 24))
(declare-fun b77 () (_ FP 8 24))
(declare-fun b169 () (_ FP 8 24))
(declare-fun b86 () (_ FP 8 24))
(declare-fun b10 () (_ FP 8 24))
(define-fun .3 () RoundingMode roundNearestTiesToEven)
(define-fun .9 () (_ FP 8 24) b11)
(define-fun .10 () (_ FP 8 24) b169)
(define-fun .11 () Bool (< .9 .10))
(define-fun .12 () (_ FP 8 24) b10)
(define-fun .13 () (_ FP 8 24) (/ .3 .12 .9))
(define-fun .14 () (_ FP 8 24) b14)
(define-fun .15 () (_ FP 8 24) (/ .3 .13 .14))
(define-fun .16 () (_ FP 8 24) b17)
(define-fun .17 () (_ FP 8 24) (/ .3 .15 .16))
(define-fun .18 () (_ FP 8 24) b20)
(define-fun .19 () (_ FP 8 24) (/ .3 .17 .18))
(define-fun .20 () (_ FP 8 24) b23)
(define-fun .21 () (_ FP 8 24) (/ .3 .19 .20))
(define-fun .22 () (_ FP 8 24) b26)
(define-fun .23 () (_ FP 8 24) (/ .3 .21 .22))
(define-fun .24 () (_ FP 8 24) b29)
(define-fun .25 () (_ FP 8 24) (/ .3 .23 .24))
(define-fun .26 () (_ FP 8 24) b32)
(define-fun .27 () (_ FP 8 24) (/ .3 .25 .26))
(define-fun .28 () (_ FP 8 24) b35)
(define-fun .29 () (_ FP 8 24) (/ .3 .27 .28))
(define-fun .30 () (_ FP 8 24) b38)
(define-fun .31 () (_ FP 8 24) (/ .3 .29 .30))
(define-fun .32 () (_ FP 8 24) b41)
(define-fun .33 () (_ FP 8 24) (/ .3 .31 .32))
(define-fun .34 () (_ FP 8 24) b44)
(define-fun .35 () (_ FP 8 24) (/ .3 .33 .34))
(define-fun .36 () (_ FP 8 24) b47)
(define-fun .37 () (_ FP 8 24) (/ .3 .35 .36))
(define-fun .38 () (_ FP 8 24) b50)
(define-fun .39 () (_ FP 8 24) (/ .3 .37 .38))
(define-fun .40 () (_ FP 8 24) b53)
(define-fun .41 () (_ FP 8 24) (/ .3 .39 .40))
(define-fun .42 () (_ FP 8 24) b56)
(define-fun .43 () (_ FP 8 24) (/ .3 .41 .42))
(define-fun .44 () (_ FP 8 24) b59)
(define-fun .45 () (_ FP 8 24) (/ .3 .43 .44))
(define-fun .46 () (_ FP 8 24) b62)
(define-fun .47 () (_ FP 8 24) (/ .3 .45 .46))
(define-fun .48 () (_ FP 8 24) b65)
(define-fun .49 () (_ FP 8 24) (/ .3 .47 .48))
(define-fun .50 () (_ FP 8 24) b68)
(define-fun .51 () (_ FP 8 24) (/ .3 .49 .50))
(define-fun .52 () (_ FP 8 24) b71)
(define-fun .53 () (_ FP 8 24) (/ .3 .51 .52))
(define-fun .54 () (_ FP 8 24) b74)
(define-fun .55 () (_ FP 8 24) (/ .3 .53 .54))
(define-fun .56 () (_ FP 8 24) b77)
(define-fun .57 () (_ FP 8 24) (/ .3 .55 .56))
(define-fun .58 () (_ FP 8 24) b80)
(define-fun .59 () (_ FP 8 24) (/ .3 .57 .58))
(define-fun .60 () (_ FP 8 24) b83)
(define-fun .61 () (_ FP 8 24) (/ .3 .59 .60))
(define-fun .62 () (_ FP 8 24) b86)
(define-fun .63 () (_ FP 8 24) (/ .3 .61 .62))
(define-fun .64 () (_ FP 8 24) b89)
(define-fun .65 () (_ FP 8 24) (/ .3 .63 .64))
(define-fun .66 () (_ FP 8 24) b92)
(define-fun .67 () (_ FP 8 24) (/ .3 .65 .66))
(define-fun .68 () (_ FP 8 24) b95)
(define-fun .69 () (_ FP 8 24) (/ .3 .67 .68))
(define-fun .70 () (_ FP 8 24) b98)
(define-fun .71 () (_ FP 8 24) (/ .3 .69 .70))
(define-fun .72 () (_ FP 8 24) b101)
(define-fun .73 () Bool (< .71 .72))
(define-fun .74 () Bool (and .11 .73))
(define-fun .75 () Bool (<= .72 .9))
(define-fun .76 () Bool (and .74 .75))
(define-fun .77 () Bool (< .14 .10))
(define-fun .78 () Bool (and .76 .77))
(define-fun .79 () Bool (<= .72 .14))
(define-fun .80 () Bool (and .78 .79))
(define-fun .81 () Bool (< .16 .10))
(define-fun .82 () Bool (and .80 .81))
(define-fun .83 () Bool (<= .72 .16))
(define-fun .84 () Bool (and .82 .83))
(define-fun .85 () Bool (< .18 .10))
(define-fun .86 () Bool (and .84 .85))
(define-fun .87 () Bool (<= .72 .18))
(define-fun .88 () Bool (and .86 .87))
(define-fun .89 () Bool (< .20 .10))
(define-fun .90 () Bool (and .88 .89))
(define-fun .91 () Bool (<= .72 .20))
(define-fun .92 () Bool (and .90 .91))
(define-fun .93 () Bool (< .22 .10))
(define-fun .94 () Bool (and .92 .93))
(define-fun .95 () Bool (<= .72 .22))
(define-fun .96 () Bool (and .94 .95))
(define-fun .97 () Bool (< .24 .10))
(define-fun .98 () Bool (and .96 .97))
(define-fun .99 () Bool (<= .72 .24))
(define-fun .100 () Bool (and .98 .99))
(define-fun .101 () Bool (< .26 .10))
(define-fun .102 () Bool (and .100 .101))
(define-fun .103 () Bool (<= .72 .26))
(define-fun .104 () Bool (and .102 .103))
(define-fun .105 () Bool (< .28 .10))
(define-fun .106 () Bool (and .104 .105))
(define-fun .107 () Bool (<= .72 .28))
(define-fun .108 () Bool (and .106 .107))
(define-fun .109 () Bool (< .30 .10))
(define-fun .110 () Bool (and .108 .109))
(define-fun .111 () Bool (<= .72 .30))
(define-fun .112 () Bool (and .110 .111))
(define-fun .113 () Bool (< .32 .10))
(define-fun .114 () Bool (and .112 .113))
(define-fun .115 () Bool (<= .72 .32))
(define-fun .116 () Bool (and .114 .115))
(define-fun .117 () Bool (< .34 .10))
(define-fun .118 () Bool (and .116 .117))
(define-fun .119 () Bool (<= .72 .34))
(define-fun .120 () Bool (and .118 .119))
(define-fun .121 () Bool (< .36 .10))
(define-fun .122 () Bool (and .120 .121))
(define-fun .123 () Bool (<= .72 .36))
(define-fun .124 () Bool (and .122 .123))
(define-fun .125 () Bool (< .38 .10))
(define-fun .126 () Bool (and .124 .125))
(define-fun .127 () Bool (<= .72 .38))
(define-fun .128 () Bool (and .126 .127))
(define-fun .129 () Bool (< .40 .10))
(define-fun .130 () Bool (and .128 .129))
(define-fun .131 () Bool (<= .72 .40))
(define-fun .132 () Bool (and .130 .131))
(define-fun .133 () Bool (< .42 .10))
(define-fun .134 () Bool (and .132 .133))
(define-fun .135 () Bool (<= .72 .42))
(define-fun .136 () Bool (and .134 .135))
(define-fun .137 () Bool (< .44 .10))
(define-fun .138 () Bool (and .136 .137))
(define-fun .139 () Bool (<= .72 .44))
(define-fun .140 () Bool (and .138 .139))
(define-fun .141 () Bool (< .46 .10))
(define-fun .142 () Bool (and .140 .141))
(define-fun .143 () Bool (<= .72 .46))
(define-fun .144 () Bool (and .142 .143))
(define-fun .145 () Bool (< .48 .10))
(define-fun .146 () Bool (and .144 .145))
(define-fun .147 () Bool (<= .72 .48))
(define-fun .148 () Bool (and .146 .147))
(define-fun .149 () Bool (< .50 .10))
(define-fun .150 () Bool (and .148 .149))
(define-fun .151 () Bool (<= .72 .50))
(define-fun .152 () Bool (and .150 .151))
(define-fun .153 () Bool (< .52 .10))
(define-fun .154 () Bool (and .152 .153))
(define-fun .155 () Bool (<= .72 .52))
(define-fun .156 () Bool (and .154 .155))
(define-fun .157 () Bool (< .54 .10))
(define-fun .158 () Bool (and .156 .157))
(define-fun .159 () Bool (<= .72 .54))
(define-fun .160 () Bool (and .158 .159))
(define-fun .161 () Bool (< .56 .10))
(define-fun .162 () Bool (and .160 .161))
(define-fun .163 () Bool (<= .72 .56))
(define-fun .164 () Bool (and .162 .163))
(define-fun .165 () Bool (< .58 .10))
(define-fun .166 () Bool (and .164 .165))
(define-fun .167 () Bool (<= .72 .58))
(define-fun .168 () Bool (and .166 .167))
(define-fun .169 () Bool (< .60 .10))
(define-fun .170 () Bool (and .168 .169))
(define-fun .171 () Bool (<= .72 .60))
(define-fun .172 () Bool (and .170 .171))
(define-fun .173 () Bool (< .62 .10))
(define-fun .174 () Bool (and .172 .173))
(define-fun .175 () Bool (<= .72 .62))
(define-fun .176 () Bool (and .174 .175))
(define-fun .177 () Bool (< .64 .10))
(define-fun .178 () Bool (and .176 .177))
(define-fun .179 () Bool (<= .72 .64))
(define-fun .180 () Bool (and .178 .179))
(define-fun .181 () Bool (< .66 .10))
(define-fun .182 () Bool (and .180 .181))
(define-fun .183 () Bool (<= .72 .66))
(define-fun .184 () Bool (and .182 .183))
(define-fun .185 () Bool (< .68 .10))
(define-fun .186 () Bool (and .184 .185))
(define-fun .187 () Bool (<= .72 .68))
(define-fun .188 () Bool (and .186 .187))
(define-fun .189 () Bool (< .70 .10))
(define-fun .190 () Bool (and .188 .189))
(define-fun .191 () Bool (<= .72 .70))
(define-fun .192 () Bool (and .190 .191))
(assert .192)
(check-sat)
